% demand
num_movements = 14;
loading_factor = [950, 850, 1800, 1700, 1100, 1950, 1100, 950, 1300, 950, 800, 1400, 850, 850];
pickup_time = [0, 0, 0, 0, 0, 1, 2, 2, 3, 5, 5, 5, 5, 5];
delivery_time = [1, 1, 1, 5, 1, 5, 5, 5, 7, 7, 7, 7, 6, 7];

% transporter definition
total_capacity = 7000;
num_decks = 3;
capacity = [3000, 1000, 3000];

% ways out of decks
num_ways_out = 1;
paths_out = array3d(decks, ways_out, decks, [
% ways out of deck d1
2, 3, 0, 

% ways out of deck d2
3, 0, 0, 

% ways out of deck d3
0, 0, 0,	

]);

